# 82525
param n := 25;
param s := 1;
set E :=  (0,3) (0,9) (0,13) (0,18) (1,4) (1,9) (2,9) (2,11) (4,7) (4,14) (4,18) (4,19) (5,8) (5,19) (6,22) (7,19) (8,16) (8,20) (8,22) (9,22) (10,12) (10,18) (11,16) (11,17) (12,16) (14,24) (15,20) (15,21) (16,20) (16,21) (17,19) (17,23) (18,20) (20,23);
